300
400
280
280
279
278
277
276
275
274
272
271
270
270
269
269
267
267
266
265
265
264
264
264
264
263
263
262
262
261
260
260
259
259
259
258
258
257
257
256
256
255
254
252
251
251
249
249
249
247
246
244
244
244
243
241
241
241
240
240
240
239
238
236
235
235
234
233
232
232
232
231
231
229
229
229
228
227
226
226
226
225
225
223
223
222
222
221
220
220
220
219
218
218
218
217
216
215
213
212
210
210
209
209
208
207
206
205
205
205
202
202
199
199
197
196
196
196
195
195
192
192
191
190
190
189
189
189
186
185
185
183
183
182
181
180
179
178
177
177
176
175
175
174
174
173
172
172
171
168
166
166
163
162
162
162
160
159
159
157
157
156
156
154
154
153
153
152
152
152
152
152
152
151
150
149
149
147
146
145
143
142
142
140
139
139
139
137
137
135
134
133
132
132
132
130
130
129
129
129
127
124
124
124
124
124
123
122
122
121
121
121
120
120
119
118
118
118
117
117
117
117
116
114
113
110
110
109
109
108
106
106
106
105
105
103
103
102
101
99
99
98
97
97
96
95
95
94
94
93
91
89
89
88
87
86
85
84
84
83
79
79
78
77
77
76
76
76
76
74
74
73
73
73
72
71
70
70
69
68
66
66
66
64
63
62
57
56
55
55
49
48
47
47
46
46
45
45
45
44
44
42
